42307.4
42307.4
40659
40659
40659
40659
40217.6
40217.6
40217.6
40217.6
40217.6
39586.7
39586.7
39477.9
39477.9
39477.9
39145.5
39020.9
39020.9
38574.7
38574.7
38574.7
38574.7
38574.7
38406.6
38406.6
38406.6
38231.9
38231.9
38231.9
38231.9
38231.9
38231.9
37923.4
37923.4
37923.4
37923.4
37923.4
37923.4
37702.7
37702.7
37497.6
37497.6
37497.6
37497.6
37497.6
37497.6
37497.6
37324.4
37004.3
36914.7
36914.7
36914.7
36821.2
36821.2
36821.2
36160
36160
36160
36089.2
36089.2
36089.2
36089.2
36089.2
36089.2
35938.4
35938.4
35938.4
35938.4
35889.1
35276.8
35276.8
35276.8
35276.8
35276.8
35276.8
35276.8
35276.8
35276.8
35276.8
35276.8
35276.8
35276.8
35187.2
35187.2
34895
34895
34895
34888.7
34888.7
34888.7
34888.7
34424.2
34424.2
34424.2
34424.2
34424.2
34052.9
34052.9
34052.9
